	Costo	Nv	Tiempo
1	1160,37	5	0,547
2	2094,54	10	0,672
3	2493,2	8	1,1099
4	3498,17	12	2,0149
5	4139,64	16	3,2819
6	1313,71	10	0,4679
7	2092,68	19	0,6719
8	2580,49	16	1,0319
9	3570,09	27	2,0149
10	4342,86	33	3,282
11	3081,41	7	1,39
12	2444,87	10	1,079
13	3691,89	14	1,4529
14	2739,43	12	1,015
